
        $ From http://www.csplib.org/Problems/prob009/data/helmut.pdf
        $ Problem number 176
        $ Sequence length : 25
        language ESSENCE' 1.0
        letting sizemaster be 550
        letting sizes be sequence(1,2,5,13,19,20,25,30,39,43,58,59,73,75,76,90,95,103,116,128,130,132,172,262,288)
        